CMPL model generation - running

CMPL version: 1.11.0
Authors: Thomas Schleiff, Mike Steglich
Distributed under the GPLv3 

create model instance ...
write model instance ...
CMPL model generation - finished

Solver - running


Welcome to IBM(R) ILOG(R) CPLEX(R) Interactive Optimizer 12.7.1.0
  with Simplex, Mixed Integer & Barrier Optimizers
5725-A06 5725-A29 5724-Y48 5724-Y49 5724-Y54 5724-Y55 5655-Y21
Copyright IBM Corp. 1988, 2017.  All Rights Reserved.

Type 'help' for a list of available commands.
Type 'help' followed by a command name for more
information on commands.

CPLEX> Specified objective sense: MINIMIZE
Selected objective  name:  line[1]
Selected RHS        name:  RHS
Selected bound      name:  BOUND
Problem '/tmp/cmpl.T15169.mps' read.
Read time = 0.05 sec. (10.22 ticks)
CPLEX> CPXPARAM_Read_APIEncoding                        "UTF-8"
Tried aggregator 3 times.
MIP Presolve eliminated 22978 rows and 35532 columns.
MIP Presolve modified 615 coefficients.
Aggregator did 1759 substitutions.
Reduced MIP has 3185 rows, 5164 columns, and 15306 nonzeros.
Reduced MIP has 4954 binaries, 0 generals, 0 SOSs, and 0 indicators.
Presolve time = 0.06 sec. (55.85 ticks)
Found incumbent of value 4749.109859 after 0.14 sec. (114.74 ticks)
Probing time = 0.01 sec. (2.76 ticks)
Tried aggregator 1 time.
MIP Presolve eliminated 0 rows and 64 columns.
Reduced MIP has 3185 rows, 5100 columns, and 15178 nonzeros.
Reduced MIP has 5100 binaries, 0 generals, 0 SOSs, and 0 indicators.
Presolve time = 0.02 sec. (14.10 ticks)
Probing time = 0.01 sec. (2.97 ticks)
Clique table members: 4434.
MIP emphasis: balance optimality and feasibility.
MIP search method: dynamic search.
Parallel mode: none, using 1 thread.
Root relaxation solution time = 0.02 sec. (23.97 ticks)

        Nodes                                         Cuts/
   Node  Left     Objective  IInf  Best Integer    Best Bound    ItCnt     Gap

*     0+    0                         4749.1099        0.0000           100.00%
*     0     0      integral     0     2170.2514     2170.2514     1448    0.00%
Elapsed time = 0.21 sec. (168.97 ticks, tree = 0.00 MB, solutions = 2)

Root node processing (before b&c):
  Real time             =    0.21 sec. (170.54 ticks)
Sequential b&c:
  Real time             =    0.00 sec. (0.00 ticks)
                          ------------
Total (root+branch&cut) =    0.21 sec. (170.54 ticks)

Solution pool: 2 solutions saved.

MIP - Integer optimal solution:  Objective =  2.1702513680e+03
Solution time =    0.21 sec.  Iterations = 1448  Nodes = 0
Deterministic time = 170.66 ticks  (804.91 ticks/sec)

CPLEX> Incumbent solution written to file '/tmp/cmpl.T15169.gsol'.
CPLEX> 
CMPL: Time used for model generation: 1 seconds
CMPL: Time used for solving the model: 1 seconds


Solution written to ASCII file: results/output_generated/2016-05-02-5/fair-nonlinear.sol

Solver - finished
